%0->52524,1->1094,2->49457,3->51230,4->52388,5->52445,6->52496,7->52499,8->52525,9->51233,10->52359,11->73235,12->50876,13->52383,14->78152,15->454255,16->496040,17->73249,18->124174,19->704445,20->51262,21->703206,22->229392,23->50481,24->344671
25 140
1 2 3 4 5 6 7 8 9 10 11 12 13 14 15 16 17 18 19 20 21 22 23 24 
0 2 3 4 5 6 7 8 
0 1 3 4 5 6 8 9 10 11 
0 1 2 4 5 6 7 8 9 10 11 12 13 14 15 16 
0 1 2 3 5 6 8 9 10 13 14 16 17 18 
0 1 2 3 4 6 7 8 10 11 12 19 
0 1 2 3 4 5 7 8 9 11 12 13 14 15 18 20 21 
0 1 3 5 6 8 11 
0 1 2 3 4 5 6 7 9 10 11 12 13 15 16 18 19 20 21 22 
0 2 3 4 6 8 12 13 
0 2 3 4 5 8 11 12 13 15 16 17 19 20 23 24 
0 2 3 5 6 7 8 10 12 13 14 19 20 23 24 
0 3 5 6 8 9 10 11 13 14 16 17 18 20 23 24 
0 3 4 6 8 9 10 11 12 15 17 18 19 20 21 23 24 
0 3 4 6 11 12 16 
0 3 6 8 10 13 24 
0 3 4 8 10 12 14 17 18 24 
0 4 10 12 13 16 18 21 24 
0 4 6 8 12 13 16 17 24 
0 5 8 10 11 13 
0 6 8 10 11 12 13 23 
0 6 8 13 17 24 
0 8 
0 10 11 12 13 20 
0 10 11 12 13 15 16 17 18 21 
